(declare-fun Num@14 () Int)
(declare-fun Num@13 () Int)
(declare-fun Num@12 () Int)
(declare-fun Num@11 () Int)
(declare-fun Num@10 () Int)
(declare-fun Num@9 () Int)
(declare-fun Num@8 () Int)
(declare-fun Num@7 () Int)
(declare-fun Num@6 () Int)
(declare-fun Num@5 () Int)
(declare-fun Num@4 () Int)
(declare-fun Num@3 () Int)
(declare-fun Num@2 () Int)
(assert (and (= Num@2 11) (= Num@3 (- Num@2 1)) (>= Num@3 0) (= Num@4 (- Num@3 1)) (>= Num@4 0) (= Num@5 (- Num@4 1)) (>= Num@5 0) (= Num@6 (- Num@5 1)) (>= Num@6 0) (= Num@7 (- Num@6 1)) (>= Num@7 0) (= Num@8 (- Num@7 1)) (>= Num@8 0) (= Num@9 (- Num@8 1)) (>= Num@9 0) (= Num@10 (- Num@9 1)) (>= Num@10 0) (= Num@11 (- Num@10 1)) (>= Num@11 0) (= Num@12 (- Num@11 1)) (>= Num@12 0) (= Num@13 (- Num@12 1)) (>= Num@13 0) (= Num@14 (- Num@13 1)) (not (>= Num@14 0))))